peakDumbCharging = 22200; 
Machine = anon_enum(16); 
machineSpeed = [3700,3700,3700,3700,3700,3700,3700,3700,3700,3700,3700,3700,3700,3700,3700,3700]; 
machineLoad = [3700,3700,3700,3700,3700,3700,3700,3700,3700,3700,3700,3700,3700,3700,3700,3700]; 
Car = anon_enum(32); 
demandCar = [18720,9280,6840,8680,2960,14640,30200,9600,20520,15880,6720,1800,1720,5880,9680,3640,12880,5960,4480,12960,6360,2480,6680,37720,6640,3880,8200,2280,33600,41280,9800,16920]; 
arrivalCar = [79,73,73,71,70,69,67,67,67,66,66,65,65,64,62,61,60,52,49,49,44,44,44,44,43,41,40,40,31,28,27,17]; 
departureCar = [86,78,77,75,72,74,77,72,74,77,70,68,66,67,66,64,65,57,52,58,49,47,48,66,47,45,44,42,63,63,63,23]; 
